c FILE /home/rafael/Documents/HappySet/MIHS/inputs/happygen/output/graph_d_regular_k3_p0.4_v100_20241127_084017.txt
c SOURCE This is a d-regular graph formed for the happy graph colouring problem.
c DESCRIPTION It was generated using the problem generator of Rhyd Lewis
c
c GRAPH STATS
c Seed                             = -580759668
c Number of Nodes                  = 100
c Number of colours k              = 3
c Number of pre-assignments        = 40
c Degree of all vertices           = 6
c Density                          = 0.0606061
c 
c The degrees of nodes 1 to 100, respectively, are as follows 
c [6, 6, 6, 6, 6, 6, 6, 6, 6, 6, 6, 6, 6, 6, 6, 6, 6, 6, 6, 6, 6, 6, 6, 6, 6, 6, 
c  6, 6, 6, 6, 6, 6, 6, 6, 6, 6, 6, 6, 6, 6, 6, 6, 6, 6, 6, 6, 6, 6, 6, 6, 6, 
c  6, 6, 6, 6, 6, 6, 6, 6, 6, 6, 6, 6, 6, 6, 6, 6, 6, 6, 6, 6, 6, 6, 6, 6, 6, 
c  6, 6, 6, 6, 6, 6, 6, 6, 6, 6, 6, 6, 6, 6, 6, 6, 6, 6, 6, 6, 6, 6, 6, 6] 
c  
p edge 100 300 3
e 1 31
e 1 35
e 1 40
e 1 69
e 1 76
e 1 85
e 2 10
e 2 13
e 2 31
e 2 76
e 2 88
e 2 92
e 3 42
e 3 44
e 3 58
e 3 65
e 3 93
e 3 95
e 4 8
e 4 10
e 4 11
e 4 25
e 4 52
e 4 80
e 5 38
e 5 43
e 5 68
e 5 71
e 5 79
e 5 81
e 6 9
e 6 24
e 6 35
e 6 69
e 6 87
e 6 97
e 7 8
e 7 29
e 7 47
e 7 58
e 7 73
e 7 80
e 8 44
e 8 56
e 8 77
e 8 81
e 9 14
e 9 18
e 9 31
e 9 50
e 9 82
e 10 15
e 10 72
e 10 74
e 10 84
e 11 23
e 11 29
e 11 33
e 11 36
e 11 73
e 12 19
e 12 43
e 12 49
e 12 66
e 12 68
e 12 99
e 13 23
e 13 53
e 13 55
e 13 65
e 13 84
e 14 30
e 14 32
e 14 34
e 14 48
e 14 60
e 15 19
e 15 49
e 15 55
e 15 65
e 15 72
e 16 35
e 16 46
e 16 69
e 16 70
e 16 78
e 16 100
e 17 32
e 17 40
e 17 45
e 17 51
e 17 55
e 17 96
e 18 20
e 18 45
e 18 48
e 18 51
e 18 70
e 19 34
e 19 65
e 19 69
e 19 93
e 20 25
e 20 32
e 20 39
e 20 64
e 20 93
e 21 34
e 21 40
e 21 72
e 21 88
e 21 89
e 21 97
e 22 24
e 22 38
e 22 48
e 22 62
e 22 71
e 22 78
e 23 27
e 23 85
e 23 93
e 23 94
e 24 28
e 24 33
e 24 46
e 24 86
e 25 32
e 25 47
e 25 50
e 25 62
e 26 53
e 26 60
e 26 78
e 26 81
e 26 82
e 26 88
e 27 59
e 27 71
e 27 93
e 27 94
e 27 98
e 28 29
e 28 49
e 28 83
e 28 86
e 28 89
e 29 37
e 29 40
e 29 71
e 30 37
e 30 78
e 30 83
e 30 93
e 30 97
e 31 41
e 31 86
e 31 88
e 32 36
e 32 43
e 33 43
e 33 45
e 33 70
e 33 90
e 34 57
e 34 67
e 34 97
e 35 43
e 35 67
e 35 100
e 36 37
e 36 45
e 36 81
e 36 90
e 37 44
e 37 51
e 37 77
e 38 59
e 38 60
e 38 66
e 38 68
e 39 46
e 39 74
e 39 89
e 39 98
e 39 99
e 40 58
e 40 91
e 41 48
e 41 54
e 41 57
e 41 69
e 41 71
e 42 53
e 42 58
e 42 76
e 42 98
e 42 99
e 43 68
e 44 68
e 44 70
e 44 79
e 45 55
e 45 66
e 46 73
e 46 74
e 46 96
e 47 60
e 47 67
e 47 80
e 47 100
e 48 80
e 48 91
e 49 50
e 49 76
e 49 87
e 50 54
e 50 57
e 50 83
e 51 53
e 51 91
e 51 92
e 52 59
e 52 62
e 52 63
e 52 69
e 52 88
e 53 58
e 53 63
e 54 83
e 54 85
e 54 89
e 54 98
e 55 84
e 55 95
e 56 63
e 56 71
e 56 76
e 56 92
e 56 96
e 57 61
e 57 62
e 57 94
e 58 70
e 59 61
e 59 67
e 59 99
e 60 84
e 60 100
e 61 62
e 61 85
e 61 87
e 61 91
e 62 97
e 63 68
e 63 75
e 63 95
e 64 67
e 64 75
e 64 80
e 64 82
e 64 94
e 65 75
e 65 92
e 66 78
e 66 81
e 66 86
e 67 72
e 70 77
e 72 78
e 72 85
e 73 74
e 73 96
e 73 98
e 74 79
e 74 83
e 75 76
e 75 82
e 75 97
e 77 87
e 77 94
e 77 96
e 79 86
e 79 92
e 79 98
e 80 96
e 81 89
e 82 89
e 82 99
e 83 95
e 84 90
e 84 91
e 85 91
e 86 92
e 87 95
e 87 100
e 88 90
e 90 94
e 90 95
e 99 100
n 7 1
n 8 1
n 9 2
n 18 2
n 19 3
n 22 2
n 27 2
n 29 1
n 32 1
n 33 2
n 35 3
n 38 2
n 40 1
n 41 2
n 45 2
n 46 1
n 47 1
n 49 1
n 52 3
n 53 1
n 54 2
n 56 1
n 61 1
n 65 3
n 68 2
n 70 2
n 72 3
n 73 1
n 76 1
n 79 3
n 80 1
n 81 1
n 82 2
n 84 2
n 86 3
n 87 1
n 88 3
n 95 1
n 96 1
n 97 3
